p edge 1678 1628
e 1 2
e 1 3
e 1 4
e 1 5
e 1 6
e 1 7
e 1 8
e 1 9
e 1 10
e 1 11
e 1 12
e 1 13
e 1 14
e 1 15
e 16 17
e 16 18
e 16 19
e 16 20
e 16 21
e 16 22
e 16 23
e 16 24
e 16 25
e 16 26
e 16 27
e 16 28
e 16 29
e 16 30
e 16 31
e 16 32
e 16 33
e 16 34
e 16 35
e 16 36
e 16 37
e 16 38
e 16 39
e 16 40
e 16 41
e 42 43
e 42 44
e 42 45
e 42 46
e 42 47
e 42 48
e 42 49
e 42 50
e 42 51
e 42 52
e 42 53
e 42 54
e 42 55
e 42 56
e 42 57
e 42 58
e 42 59
e 42 60
e 42 61
e 42 62
e 42 63
e 42 64
e 42 65
e 42 66
e 42 67
e 42 68
e 42 69
e 42 70
e 42 71
e 42 72
e 42 73
e 42 74
e 42 75
e 42 76
e 42 77
e 42 78
e 42 79
e 42 80
e 42 81
e 42 82
e 42 83
e 42 84
e 42 85
e 42 86
e 42 87
e 42 88
e 42 89
e 42 90
e 42 91
e 42 92
e 42 93
e 42 94
e 42 95
e 42 96
e 42 97
e 42 98
e 42 99
e 100 101
e 100 102
e 100 103
e 100 104
e 100 105
e 100 106
e 100 107
e 100 108
e 100 109
e 100 110
e 100 111
e 100 112
e 100 113
e 100 114
e 100 115
e 100 116
e 100 117
e 100 118
e 100 119
e 100 120
e 100 121
e 100 122
e 100 123
e 100 124
e 100 125
e 100 126
e 100 127
e 100 128
e 100 129
e 100 130
e 100 131
e 100 132
e 100 133
e 100 134
e 100 135
e 136 137
e 136 138
e 136 139
e 136 140
e 136 141
e 136 142
e 136 143
e 136 144
e 136 145
e 136 146
e 136 147
e 136 148
e 136 149
e 136 150
e 136 151
e 136 152
e 136 153
e 136 154
e 136 155
e 136 156
e 136 157
e 136 158
e 136 159
e 136 160
e 136 161
e 136 162
e 136 163
e 136 164
e 165 166
e 165 167
e 165 168
e 165 169
e 165 170
e 165 171
e 165 172
e 165 173
e 165 174
e 165 175
e 165 176
e 165 177
e 165 178
e 165 179
e 180 181
e 180 182
e 180 183
e 180 184
e 180 185
e 180 186
e 180 187
e 180 188
e 180 189
e 180 190
e 180 191
e 180 192
e 180 193
e 180 194
e 180 195
e 180 196
e 180 197
e 180 198
e 180 199
e 180 200
e 180 201
e 180 202
e 180 203
e 180 204
e 180 205
e 180 206
e 180 207
e 180 208
e 180 209
e 180 210
e 180 211
e 180 212
e 180 213
e 180 214
e 180 215
e 180 216
e 180 217
e 180 218
e 180 219
e 180 220
e 221 222
e 221 223
e 221 224
e 221 225
e 221 226
e 221 227
e 221 228
e 221 229
e 221 230
e 221 231
e 221 232
e 233 234
e 233 235
e 233 236
e 233 237
e 233 238
e 233 239
e 233 240
e 233 241
e 233 242
e 233 243
e 233 244
e 233 245
e 246 247
e 246 248
e 246 249
e 246 250
e 246 251
e 246 252
e 246 253
e 246 254
e 246 255
e 246 256
e 246 257
e 246 258
e 246 259
e 246 260
e 246 261
e 246 262
e 246 263
e 246 264
e 246 265
e 246 266
e 246 267
e 246 268
e 246 269
e 246 270
e 246 271
e 246 272
e 246 273
e 246 274
e 246 275
e 246 276
e 246 277
e 246 278
e 246 279
e 246 280
e 246 281
e 246 282
e 246 283
e 246 284
e 246 285
e 246 286
e 246 287
e 246 288
e 246 289
e 246 290
e 246 291
e 246 292
e 246 293
e 246 294
e 295 296
e 295 297
e 295 298
e 295 299
e 295 300
e 295 301
e 295 302
e 295 303
e 295 304
e 295 305
e 295 306
e 295 307
e 295 308
e 295 309
e 295 310
e 295 311
e 295 312
e 295 313
e 295 314
e 295 315
e 295 316
e 295 317
e 318 319
e 318 320
e 318 321
e 318 322
e 318 323
e 318 324
e 318 325
e 318 326
e 318 327
e 318 328
e 318 329
e 318 330
e 318 331
e 318 332
e 318 333
e 318 334
e 318 335
e 318 336
e 318 337
e 318 338
e 318 339
e 318 340
e 318 341
e 318 342
e 318 343
e 318 344
e 318 345
e 318 346
e 318 347
e 318 348
e 318 349
e 318 350
e 318 351
e 318 352
e 318 353
e 318 354
e 318 355
e 318 356
e 318 357
e 318 358
e 318 359
e 318 360
e 318 361
e 318 362
e 318 363
e 318 364
e 318 365
e 366 367
e 366 368
e 366 369
e 366 370
e 366 371
e 366 372
e 366 373
e 366 374
e 366 375
e 366 376
e 366 377
e 366 378
e 366 379
e 366 380
e 366 381
e 366 382
e 366 383
e 366 384
e 366 385
e 366 386
e 366 387
e 366 388
e 366 389
e 366 390
e 366 391
e 366 392
e 366 393
e 366 394
e 366 395
e 366 396
e 366 397
e 366 398
e 366 399
e 366 400
e 366 401
e 366 402
e 366 403
e 366 404
e 366 405
e 366 406
e 366 407
e 366 408
e 366 409
e 366 410
e 366 411
e 366 412
e 413 414
e 413 415
e 413 416
e 413 417
e 413 418
e 413 419
e 413 420
e 413 421
e 413 422
e 413 423
e 413 424
e 413 425
e 413 426
e 413 427
e 413 428
e 413 429
e 413 430
e 413 431
e 413 432
e 413 433
e 413 434
e 413 435
e 413 436
e 413 437
e 413 438
e 413 439
e 413 440
e 413 441
e 413 442
e 413 443
e 413 444
e 413 445
e 413 446
e 413 447
e 413 448
e 413 449
e 413 450
e 413 451
e 413 452
e 413 453
e 413 454
e 413 455
e 413 456
e 413 457
e 413 458
e 413 459
e 413 460
e 413 461
e 462 463
e 462 464
e 462 465
e 462 466
e 462 467
e 462 468
e 462 469
e 462 470
e 462 471
e 462 472
e 462 473
e 462 474
e 462 475
e 462 476
e 462 477
e 462 478
e 462 479
e 462 480
e 462 481
e 462 482
e 462 483
e 462 484
e 462 485
e 462 486
e 462 487
e 462 488
e 462 489
e 462 490
e 462 491
e 462 492
e 462 493
e 462 494
e 462 495
e 462 496
e 462 497
e 462 498
e 462 499
e 462 500
e 462 501
e 462 502
e 462 503
e 462 504
e 462 505
e 462 506
e 462 507
e 462 508
e 462 509
e 462 510
e 462 511
e 462 512
e 462 513
e 462 514
e 462 515
e 462 516
e 462 517
e 462 518
e 462 519
e 462 520
e 462 521
e 522 523
e 522 524
e 522 525
e 522 526
e 522 527
e 522 528
e 522 529
e 522 530
e 522 531
e 522 532
e 522 533
e 522 534
e 522 535
e 522 536
e 522 537
e 522 538
e 522 539
e 522 540
e 522 541
e 542 543
e 542 544
e 542 545
e 542 546
e 542 547
e 542 548
e 542 549
e 542 550
e 542 551
e 542 552
e 542 553
e 542 554
e 542 555
e 542 556
e 542 557
e 542 558
e 542 559
e 542 560
e 542 561
e 542 562
e 542 563
e 542 564
e 542 565
e 542 566
e 542 567
e 542 568
e 542 569
e 542 570
e 542 571
e 542 572
e 542 573
e 542 574
e 542 575
e 542 576
e 542 577
e 542 578
e 579 580
e 579 581
e 579 582
e 579 583
e 579 584
e 579 585
e 579 586
e 579 587
e 579 588
e 579 589
e 579 590
e 579 591
e 579 592
e 579 593
e 579 594
e 579 595
e 579 596
e 579 597
e 579 598
e 579 599
e 579 600
e 579 601
e 579 602
e 579 603
e 579 604
e 579 605
e 579 606
e 579 607
e 579 608
e 579 609
e 579 610
e 579 611
e 579 612
e 579 613
e 579 614
e 579 615
e 579 616
e 617 618
e 617 619
e 617 620
e 617 621
e 617 622
e 617 623
e 617 624
e 617 625
e 617 626
e 617 627
e 617 628
e 617 629
e 617 630
e 617 631
e 617 632
e 617 633
e 617 634
e 617 635
e 617 636
e 617 637
e 617 638
e 617 639
e 640 641
e 640 642
e 640 643
e 640 644
e 640 645
e 640 646
e 640 647
e 640 648
e 640 649
e 640 650
e 651 652
e 651 653
e 651 654
e 651 655
e 651 656
e 651 657
e 651 658
e 651 659
e 651 660
e 651 661
e 651 662
e 651 663
e 651 664
e 651 665
e 651 666
e 651 667
e 651 668
e 651 669
e 651 670
e 651 671
e 651 672
e 651 673
e 651 674
e 651 675
e 651 676
e 651 677
e 651 678
e 651 679
e 651 680
e 651 681
e 651 682
e 651 683
e 651 684
e 651 685
e 651 686
e 651 687
e 651 688
e 651 689
e 651 690
e 651 691
e 651 692
e 651 693
e 651 694
e 651 695
e 651 696
e 651 697
e 651 698
e 651 699
e 651 700
e 651 701
e 651 702
e 703 704
e 703 705
e 703 706
e 703 707
e 703 708
e 703 709
e 703 710
e 703 711
e 703 712
e 703 713
e 703 714
e 703 715
e 703 716
e 703 717
e 703 718
e 703 719
e 703 720
e 703 721
e 703 722
e 703 723
e 703 724
e 703 725
e 703 726
e 703 727
e 703 728
e 703 729
e 703 730
e 703 731
e 703 732
e 703 733
e 703 734
e 703 735
e 703 736
e 703 737
e 703 738
e 703 739
e 703 740
e 703 741
e 703 742
e 743 744
e 743 745
e 743 746
e 743 747
e 743 748
e 743 749
e 743 750
e 743 751
e 743 752
e 743 753
e 743 754
e 743 755
e 743 756
e 743 757
e 743 758
e 743 759
e 743 760
e 743 761
e 743 762
e 743 763
e 743 764
e 743 765
e 743 766
e 743 767
e 743 768
e 743 769
e 743 770
e 743 771
e 743 772
e 743 773
e 743 774
e 743 775
e 743 776
e 743 777
e 743 778
e 743 779
e 743 780
e 743 781
e 782 783
e 782 784
e 782 785
e 782 786
e 782 787
e 782 788
e 782 789
e 782 790
e 782 791
e 782 792
e 782 793
e 782 794
e 782 795
e 782 796
e 782 797
e 782 798
e 782 799
e 782 800
e 782 801
e 782 802
e 782 803
e 782 804
e 782 805
e 782 806
e 782 807
e 808 809
e 808 810
e 808 811
e 808 812
e 808 813
e 808 814
e 808 815
e 808 816
e 808 817
e 808 818
e 808 819
e 808 820
e 808 821
e 808 822
e 808 823
e 808 824
e 808 825
e 808 826
e 808 827
e 808 828
e 829 830
e 829 831
e 829 832
e 829 833
e 829 834
e 829 835
e 829 836
e 829 837
e 829 838
e 829 839
e 829 840
e 829 841
e 829 842
e 829 843
e 829 844
e 829 845
e 829 846
e 829 847
e 829 848
e 829 849
e 829 850
e 829 851
e 829 852
e 829 853
e 829 854
e 829 855
e 829 856
e 829 857
e 829 858
e 829 859
e 829 860
e 829 861
e 829 862
e 863 864
e 863 865
e 863 866
e 863 867
e 863 868
e 863 869
e 863 870
e 863 871
e 863 872
e 863 873
e 863 874
e 863 875
e 863 876
e 863 877
e 863 878
e 863 879
e 863 880
e 863 881
e 863 882
e 863 883
e 863 884
e 863 885
e 863 886
e 863 887
e 863 888
e 863 889
e 863 890
e 863 891
e 863 892
e 863 893
e 863 894
e 863 895
e 863 896
e 863 897
e 863 898
e 863 899
e 900 901
e 900 902
e 900 903
e 900 904
e 900 905
e 900 906
e 900 907
e 900 908
e 900 909
e 900 910
e 900 911
e 900 912
e 900 913
e 900 914
e 900 915
e 900 916
e 900 917
e 900 918
e 900 919
e 900 920
e 900 921
e 900 922
e 900 923
e 900 924
e 900 925
e 900 926
e 927 928
e 927 929
e 927 930
e 927 931
e 927 932
e 927 933
e 927 934
e 927 935
e 927 936
e 927 937
e 927 938
e 927 939
e 927 940
e 927 941
e 927 942
e 927 943
e 927 944
e 927 945
e 927 946
e 927 947
e 927 948
e 927 949
e 927 950
e 927 951
e 927 952
e 927 953
e 927 954
e 927 955
e 927 956
e 927 957
e 927 958
e 927 959
e 927 960
e 927 961
e 927 962
e 927 963
e 927 964
e 927 965
e 927 966
e 927 967
e 927 968
e 927 969
e 927 970
e 971 972
e 971 973
e 971 974
e 971 975
e 971 976
e 971 977
e 971 978
e 971 979
e 971 980
e 971 981
e 971 982
e 971 983
e 971 984
e 971 985
e 971 986
e 971 987
e 971 988
e 971 989
e 971 990
e 971 991
e 971 992
e 971 993
e 971 994
e 971 995
e 971 996
e 971 997
e 971 998
e 971 999
e 971 1000
e 971 1001
e 971 1002
e 971 1003
e 971 1004
e 971 1005
e 971 1006
e 971 1007
e 971 1008
e 971 1009
e 971 1010
e 971 1011
e 971 1012
e 971 1013
e 1014 1015
e 1014 1016
e 1014 1017
e 1014 1018
e 1014 1019
e 1014 1020
e 1014 1021
e 1014 1022
e 1014 1023
e 1014 1024
e 1014 1025
e 1014 1026
e 1014 1027
e 1014 1028
e 1014 1029
e 1014 1030
e 1014 1031
e 1014 1032
e 1014 1033
e 1014 1034
e 1014 1035
e 1014 1036
e 1014 1037
e 1014 1038
e 1014 1039
e 1014 1040
e 1014 1041
e 1014 1042
e 1014 1043
e 1014 1044
e 1014 1045
e 1014 1046
e 1014 1047
e 1014 1048
e 1014 1049
e 1014 1050
e 1051 1052
e 1051 1053
e 1051 1054
e 1051 1055
e 1051 1056
e 1051 1057
e 1051 1058
e 1051 1059
e 1051 1060
e 1051 1061
e 1062 1063
e 1062 1064
e 1062 1065
e 1062 1066
e 1062 1067
e 1062 1068
e 1062 1069
e 1062 1070
e 1062 1071
e 1062 1072
e 1062 1073
e 1062 1074
e 1062 1075
e 1062 1076
e 1062 1077
e 1062 1078
e 1062 1079
e 1062 1080
e 1081 1082
e 1081 1083
e 1081 1084
e 1081 1085
e 1081 1086
e 1081 1087
e 1081 1088
e 1081 1089
e 1081 1090
e 1081 1091
e 1081 1092
e 1081 1093
e 1081 1094
e 1081 1095
e 1081 1096
e 1081 1097
e 1081 1098
e 1081 1099
e 1081 1100
e 1081 1101
e 1081 1102
e 1081 1103
e 1081 1104
e 1105 1106
e 1105 1107
e 1105 1108
e 1105 1109
e 1105 1110
e 1105 1111
e 1105 1112
e 1105 1113
e 1105 1114
e 1105 1115
e 1105 1116
e 1105 1117
e 1118 1119
e 1118 1120
e 1118 1121
e 1118 1122
e 1118 1123
e 1118 1124
e 1118 1125
e 1118 1126
e 1118 1127
e 1118 1128
e 1118 1129
e 1118 1130
e 1118 1131
e 1118 1132
e 1118 1133
e 1118 1134
e 1118 1135
e 1118 1136
e 1118 1137
e 1118 1138
e 1118 1139
e 1118 1140
e 1118 1141
e 1118 1142
e 1118 1143
e 1118 1144
e 1118 1145
e 1118 1146
e 1118 1147
e 1118 1148
e 1118 1149
e 1118 1150
e 1118 1151
e 1118 1152
e 1118 1153
e 1118 1154
e 1118 1155
e 1118 1156
e 1118 1157
e 1118 1158
e 1118 1159
e 1160 1161
e 1160 1162
e 1160 1163
e 1160 1164
e 1160 1165
e 1160 1166
e 1160 1167
e 1160 1168
e 1160 1169
e 1160 1170
e 1160 1171
e 1160 1172
e 1160 1173
e 1160 1174
e 1160 1175
e 1160 1176
e 1160 1177
e 1160 1178
e 1160 1179
e 1160 1180
e 1160 1181
e 1160 1182
e 1160 1183
e 1160 1184
e 1160 1185
e 1186 1187
e 1186 1188
e 1186 1189
e 1186 1190
e 1186 1191
e 1186 1192
e 1186 1193
e 1186 1194
e 1186 1195
e 1186 1196
e 1186 1197
e 1186 1198
e 1186 1199
e 1186 1200
e 1186 1201
e 1186 1202
e 1186 1203
e 1186 1204
e 1186 1205
e 1186 1206
e 1186 1207
e 1186 1208
e 1186 1209
e 1186 1210
e 1186 1211
e 1186 1212
e 1186 1213
e 1186 1214
e 1186 1215
e 1186 1216
e 1186 1217
e 1218 1219
e 1218 1220
e 1218 1221
e 1218 1222
e 1218 1223
e 1218 1224
e 1218 1225
e 1218 1226
e 1218 1227
e 1218 1228
e 1218 1229
e 1218 1230
e 1218 1231
e 1218 1232
e 1218 1233
e 1218 1234
e 1218 1235
e 1218 1236
e 1218 1237
e 1218 1238
e 1218 1239
e 1218 1240
e 1218 1241
e 1218 1242
e 1218 1243
e 1218 1244
e 1218 1245
e 1218 1246
e 1218 1247
e 1218 1248
e 1218 1249
e 1218 1250
e 1218 1251
e 1218 1252
e 1218 1253
e 1218 1254
e 1218 1255
e 1218 1256
e 1218 1257
e 1218 1258
e 1218 1259
e 1218 1260
e 1218 1261
e 1218 1262
e 1218 1263
e 1218 1264
e 1218 1265
e 1218 1266
e 1218 1267
e 1218 1268
e 1218 1269
e 1270 1271
e 1270 1272
e 1270 1273
e 1270 1274
e 1270 1275
e 1270 1276
e 1270 1277
e 1270 1278
e 1270 1279
e 1270 1280
e 1270 1281
e 1270 1282
e 1270 1283
e 1270 1284
e 1270 1285
e 1270 1286
e 1270 1287
e 1270 1288
e 1270 1289
e 1270 1290
e 1270 1291
e 1270 1292
e 1270 1293
e 1270 1294
e 1270 1295
e 1270 1296
e 1270 1297
e 1270 1298
e 1270 1299
e 1270 1300
e 1270 1301
e 1270 1302
e 1270 1303
e 1270 1304
e 1270 1305
e 1270 1306
e 1270 1307
e 1270 1308
e 1270 1309
e 1270 1310
e 1270 1311
e 1270 1312
e 1270 1313
e 1270 1314
e 1315 1316
e 1315 1317
e 1315 1318
e 1315 1319
e 1315 1320
e 1315 1321
e 1315 1322
e 1315 1323
e 1315 1324
e 1315 1325
e 1315 1326
e 1315 1327
e 1315 1328
e 1315 1329
e 1315 1330
e 1315 1331
e 1315 1332
e 1315 1333
e 1315 1334
e 1315 1335
e 1315 1336
e 1315 1337
e 1315 1338
e 1315 1339
e 1315 1340
e 1341 1342
e 1341 1343
e 1341 1344
e 1341 1345
e 1341 1346
e 1341 1347
e 1341 1348
e 1341 1349
e 1341 1350
e 1341 1351
e 1341 1352
e 1341 1353
e 1341 1354
e 1341 1355
e 1341 1356
e 1341 1357
e 1341 1358
e 1341 1359
e 1341 1360
e 1341 1361
e 1341 1362
e 1341 1363
e 1364 1365
e 1364 1366
e 1364 1367
e 1364 1368
e 1364 1369
e 1364 1370
e 1364 1371
e 1364 1372
e 1364 1373
e 1364 1374
e 1364 1375
e 1364 1376
e 1364 1377
e 1364 1378
e 1364 1379
e 1364 1380
e 1364 1381
e 1364 1382
e 1364 1383
e 1364 1384
e 1364 1385
e 1364 1386
e 1364 1387
e 1364 1388
e 1364 1389
e 1364 1390
e 1364 1391
e 1364 1392
e 1364 1393
e 1364 1394
e 1364 1395
e 1364 1396
e 1364 1397
e 1364 1398
e 1364 1399
e 1364 1400
e 1364 1401
e 1364 1402
e 1403 1404
e 1403 1405
e 1403 1406
e 1403 1407
e 1403 1408
e 1403 1409
e 1403 1410
e 1403 1411
e 1403 1412
e 1403 1413
e 1403 1414
e 1403 1415
e 1403 1416
e 1403 1417
e 1403 1418
e 1403 1419
e 1403 1420
e 1403 1421
e 1403 1422
e 1403 1423
e 1403 1424
e 1403 1425
e 1403 1426
e 1403 1427
e 1403 1428
e 1403 1429
e 1403 1430
e 1403 1431
e 1403 1432
e 1403 1433
e 1403 1434
e 1403 1435
e 1403 1436
e 1403 1437
e 1403 1438
e 1403 1439
e 1403 1440
e 1403 1441
e 1403 1442
e 1403 1443
e 1444 1445
e 1444 1446
e 1444 1447
e 1444 1448
e 1444 1449
e 1444 1450
e 1444 1451
e 1444 1452
e 1444 1453
e 1444 1454
e 1444 1455
e 1444 1456
e 1444 1457
e 1444 1458
e 1444 1459
e 1444 1460
e 1444 1461
e 1444 1462
e 1444 1463
e 1444 1464
e 1444 1465
e 1444 1466
e 1444 1467
e 1444 1468
e 1444 1469
e 1444 1470
e 1444 1471
e 1444 1472
e 1444 1473
e 1444 1474
e 1444 1475
e 1444 1476
e 1444 1477
e 1444 1478
e 1444 1479
e 1444 1480
e 1444 1481
e 1444 1482
e 1444 1483
e 1444 1484
e 1444 1485
e 1444 1486
e 1487 1488
e 1487 1489
e 1487 1490
e 1487 1491
e 1487 1492
e 1487 1493
e 1487 1494
e 1487 1495
e 1487 1496
e 1487 1497
e 1487 1498
e 1487 1499
e 1487 1500
e 1487 1501
e 1487 1502
e 1487 1503
e 1487 1504
e 1487 1505
e 1506 1507
e 1506 1508
e 1506 1509
e 1506 1510
e 1506 1511
e 1506 1512
e 1506 1513
e 1506 1514
e 1506 1515
e 1506 1516
e 1506 1517
e 1506 1518
e 1506 1519
e 1506 1520
e 1506 1521
e 1506 1522
e 1506 1523
e 1506 1524
e 1506 1525
e 1506 1526
e 1506 1527
e 1506 1528
e 1506 1529
e 1506 1530
e 1506 1531
e 1506 1532
e 1506 1533
e 1506 1534
e 1506 1535
e 1506 1536
e 1506 1537
e 1506 1538
e 1506 1539
e 1506 1540
e 1506 1541
e 1506 1542
e 1506 1543
e 1506 1544
e 1506 1545
e 1506 1546
e 1506 1547
e 1506 1548
e 1506 1549
e 1506 1550
e 1506 1551
e 1552 1553
e 1552 1554
e 1552 1555
e 1552 1556
e 1552 1557
e 1552 1558
e 1552 1559
e 1552 1560
e 1552 1561
e 1552 1562
e 1552 1563
e 1552 1564
e 1552 1565
e 1552 1566
e 1552 1567
e 1552 1568
e 1552 1569
e 1552 1570
e 1552 1571
e 1552 1572
e 1552 1573
e 1552 1574
e 1552 1575
e 1552 1576
e 1552 1577
e 1552 1578
e 1552 1579
e 1552 1580
e 1552 1581
e 1552 1582
e 1552 1583
e 1552 1584
e 1552 1585
e 1552 1586
e 1552 1587
e 1552 1588
e 1552 1589
e 1552 1590
e 1591 1592
e 1591 1593
e 1591 1594
e 1591 1595
e 1591 1596
e 1591 1597
e 1591 1598
e 1591 1599
e 1591 1600
e 1591 1601
e 1591 1602
e 1591 1603
e 1591 1604
e 1591 1605
e 1591 1606
e 1591 1607
e 1591 1608
e 1591 1609
e 1591 1610
e 1591 1611
e 1591 1612
e 1591 1613
e 1591 1614
e 1591 1615
e 1591 1616
e 1591 1617
e 1591 1618
e 1591 1619
e 1591 1620
e 1591 1621
e 1591 1622
e 1591 1623
e 1591 1624
e 1591 1625
e 1591 1626
e 1591 1627
e 1591 1628
e 1591 1629
e 1591 1630
e 1591 1631
e 1591 1632
e 1591 1633
e 1591 1634
e 1591 1635
e 1591 1636
e 1591 1637
e 1591 1638
e 1591 1639
e 1591 1640
e 1591 1641
e 1591 1642
e 1591 1643
e 1591 1644
e 1591 1645
e 1591 1646
e 1647 1648
e 1647 1649
e 1647 1650
e 1647 1651
e 1647 1652
e 1647 1653
e 1647 1654
e 1647 1655
e 1647 1656
e 1647 1657
e 1647 1658
e 1647 1659
e 1647 1660
e 1647 1661
e 1647 1662
e 1647 1663
e 1647 1664
e 1647 1665
e 1647 1666
e 1647 1667
e 1647 1668
e 1647 1669
e 1647 1670
e 1647 1671
e 1647 1672
e 1647 1673
e 1647 1674
e 1647 1675
e 1647 1676
e 1647 1677
e 1647 1678
